CPXPARAM_MIP_Tolerances_MIPGap                   0
Lazy constraint(s) or lazy constraint callback is present.
    Disabling dual reductions (CPX_PARAM_REDUCE) in presolve.
    Disabling non-linear reductions (CPX_PARAM_PRELINEAR) in presolve.
         Disabling repeat represolve because of lazy constraint/incumbent callback.
Tried aggregator 1 time.
MIP Presolve eliminated 1104 rows and 10 columns.
MIP Presolve modified 11 coefficients.
Reduced MIP has 271 rows, 1133 columns, and 568 nonzeros.
Reduced MIP has 902 binaries, 0 generals, 0 SOSs, and 0 indicators.
Presolve time = 0.00 sec. (0.78 ticks)
Probing time = 0.00 sec. (0.20 ticks)
Clique table members: 56.
MIP emphasis: balance optimality and feasibility.
MIP search method: traditional branch-and-cut.
Parallel mode: none, using 1 thread.
Root relaxation solution time = 0.00 sec. (0.65 ticks)

        Nodes                                         Cuts/
   Node  Left     Objective  IInf  Best Integer    Best Bound    ItCnt     Gap         Variable B NodeID Parent  Depth

      0     0       10.0000    13                     10.0000       13         
      0     0       16.0000    17                    Cuts: 50       79         
      0     0       16.0000     5                    Cuts: 17       86         
      0     0       16.0000     8                    Cuts: 11      100         
      0     0       16.0000     4                    Cuts: 12      107         
      0     0       16.0000     2                  MIRcuts: 1      109         
*     0+    0                           16.0000       16.0000             0.00%
      0     0        cutoff             16.0000       16.0000      109    0.00%                        0             0
Elapsed time = 0.03 sec. (15.27 ticks, tree = 0.01 MB, solutions = 1)

Clique cuts applied:  35
Mixed integer rounding cuts applied:  16
User cuts applied:  14

Root node processing (before b&c):
  Real time             =    0.03 sec. (15.32 ticks)
Sequential b&c:
  Real time             =    0.00 sec. (0.00 ticks)
                          ------------
Total (root+branch&cut) =    0.03 sec. (15.32 ticks)
